151	32	4	59	
16	17	16	19

0	0	0	0	0	0	3	1	2	3
1	0	4	0	0	1	3	11	13	26
2	9	0	0	0	3	3	4	17	18
3	0	9	0	5	6	3	6	7	9
4	1	0	0	2	8	3	5	6	8
5	0	1	2	6	1	3	11	12	15
6	0	4	8	2	10	3	20	22	29
7	0	0	7	2	5	3	10	17	19
8	7	10	10	10	10	3	9	11	19
9	4	0	0	0	2	3	20	24	26
10	4	0	0	1	3	3	13	14	30
11	10	4	0	0	3	3	16	20	21
12	0	9	0	0	1	3	19	22	26
13	0	6	0	0	10	3	15	18	25
14	5	0	0	1	3	3	15	16	18
15	0	9	9	0	2	1	23
16	0	0	1	7	10	2	23	25
17	10	0	0	0	1	1	24
18	7	4	6	0	6	2	21	22
19	3	9	6	0	8	2	21	24
20	0	0	0	8	2	1	27
21	5	5	0	0	4	2	27	29
22	2	0	7	0	9	1	23
23	1	0	5	0	2	1	28
24	0	8	8	1	4	2	25	30
25	0	4	2	3	1	2	28	29
26	6	2	0	0	7	2	27	30
27	6	8	0	10	10	1	28
28	2	0	0	8	9	1	31
29	0	0	0	9	4	1	31
30	0	0	1	8	6	1	31
31	0	0	0	0	0	0
